(set-logic ALL)
(declare-const k Int)
(declare-fun %X () (_ BitVec k))
(declare-fun C2 () (_ BitVec k))
(declare-fun C () (_ BitVec k))
(assert (not (= (bvsub C (bvadd %X C2)) (bvsub (bvsub C C2) %X))))
(assert true)
(check-sat)